(set-option :produce-models true)
(set-logic QF_UF)
(declare-fun p15() Bool)
(declare-fun p10() Bool)
(declare-fun p7() Bool)
(declare-fun p19() Bool)
(declare-fun p8() Bool)
(declare-fun p1() Bool)
(declare-fun p11() Bool)
(declare-fun p13() Bool)
(declare-fun p2() Bool)
(declare-fun p5() Bool)
(declare-fun p17() Bool)
(declare-fun p6() Bool)
(declare-fun p0() Bool)
(declare-fun p18() Bool)
(declare-fun p16() Bool)
(declare-fun p3() Bool)
(declare-fun p9() Bool)
(declare-fun p12() Bool)
(declare-fun p14() Bool)
(declare-fun p4() Bool)
(assert
(and (or (not p15) p10 (not p7)) (or (not p19) (not p15) (not p10)) (or (not p19) p15 p10) (or p8 (not p7) p1) (or p11 (not p8) p19) (or (not p13) (not p2) (not p11)) (or p5 p15 (not p5)) (or (not p17) (not p6) (not p7)) (or (not p2) p2 (not p7)) (or (not p8) p0 (not p6)) (or p0 (not p18) p19) (or p13 (not p6) p18) (or p7 p6 (not p16)) (or p7 p7 (not p3)) (or p2 (not p6) p18) (or (not p19) (not p9) p5) (or (not p2) p19 (not p17)) (or p1 (not p10) (not p3)) (or (not p7) (not p16) (not p8)) (or (not p3) (not p12) p2) (or p5 (not p9) (not p12)) (or (not p0) p13 p5) (or p12 p9 p3) (or p17 (not p2) p7) (or p7 p16 p8) (or p16 p1 (not p6)) (or (not p7) (not p6) (not p14)) (or (not p7) (not p16) p3) (or (not p11) p14 p12) (or p13 (not p15) p16) (or p8 (not p17) (not p8)) (or (not p5) (not p0) p3) (or p6 p19 (not p17)) (or (not p3) (not p3) p8) (or p16 p3 (not p2)) (or (not p7) p4 (not p11)) (or p16 p11 (not p5)) (or p1 p7 p0) (or (not p5) (not p16) p10) (or p10 (not p0) p16) (or (not p17) (not p16) p7) (or (not p6) (not p14) p17) (or (not p1) p18 (not p16)) (or p11 p3 (not p8)) (or p4 (not p6) (not p11)) (or (not p5) (not p17) p6) (or p9 p12 (not p17)) (or p17 p4 (not p11)) (or (not p13) p11 p15) (or p11 (not p11) (not p13)) (or p10 p0 (not p12)) (or p13 (not p8) (not p9)) (or p19 (not p3) (not p13)) (or p15 (not p17) p14) (or p3 (not p16) (not p4)) (or p16 p0 (not p9)) (or (not p13) p17 p0) (or p2 p14 (not p10)) (or p10 (not p19) (not p0)) (or (not p17) (not p2) p12) (or p13 p5 p17) (or p17 (not p14) (not p18)) (or p12 p13 p14) (or p6 p1 (not p10)) (or (not p0) p10 p10) (or (not p8) p12 (not p2)) (or p12 p3 p14) (or (not p6) p11 (not p7)) (or (not p14) p16 p18) (or (not p16) (not p2) (not p16)) (or p9 p9 (not p15)) (or p9 (not p14) (not p6)) (or (not p6) (not p2) p17) (or (not p8) p8 p6) (or p12 (not p5) p17) (or p4 p14 (not p12)) (or p18 (not p7) p1) (or p5 p1 (not p1)) (or p13 p6 p10) (or p15 (not p6) p11) (or (not p0) p15 p6) (or (not p5) (not p15) p4) (or p6 p11 (not p11)) (or (not p13) (not p6) (not p14)) (or p17 (not p17) (not p18)) (or p15 (not p18) p5) (or (not p2) p14 p3))
)
(check-sat)
(get-model)
